c partition 1 of 4
p cnf 18 18
10 4 -13 0
-13 15 -8 0
15 7 4 0
-5 -11 14 0
10 12 9 0
-15 -10 -2 0
-17 -16 -1 0
7 -3 12 0
-4 13 -6 0
12 -17 -3 0
-3 -5 -6 0
-17 6 7 0
-5 -12 13 0
13 -8 3 0
-5 14 1 0
-18 -12 -2 0
12 -7 3 0
-16 9 -10 0
